Route 1: 42 36 34 31 29 27 33 20 19 18 48 21 23 9 12 2 6 7 8 46 4 5 3 1 43 35 37

Route 2: 16 15 11 10 13 17 47 14

Route 3: 45 39 44 38 30 32 49 24 22 25 26 28 50

Route 4: 41 40

Vehicles: 4

Distance: 910.37

